<?xml version = "1.0" standalone="yes"?>
<!-- This file has been generated by DOcplex version 2.23.222  -->
<CPLEXSolution version="1.0">
 <header
   problemName="CVRP"
   objectiveValue="14891.5"
  />
 <variables>
  <variable name="x_0_2" index="1" value="1.00000"/>
  <variable name="x_0_5" index="4" value="1.00000"/>
  <variable name="x_0_6" index="5" value="1.00000"/>
  <variable name="x_0_7" index="6" value="1.00000"/>
  <variable name="x_0_8" index="7" value="1.00000"/>
  <variable name="x_0_9" index="8" value="1.00000"/>
  <variable name="x_0_10" index="9" value="1.00000"/>
  <variable name="x_0_11" index="10" value="1.00000"/>
  <variable name="x_0_13" index="12" value="1.00000"/>
  <variable name="x_0_14" index="13" value="1.00000"/>
  <variable name="x_1_15" index="30" value="1.00000"/>
  <variable name="x_2_0" index="32" value="1.00000"/>
  <variable name="x_3_1" index="49" value="1.00000"/>
  <variable name="x_4_0" index="64" value="1.00000"/>
  <variable name="x_5_0" index="80" value="1.00000"/>
  <variable name="x_6_0" index="96" value="1.00000"/>
  <variable name="x_7_0" index="112" value="1.00000"/>
  <variable name="x_8_3" index="131" value="1.00000"/>
  <variable name="x_9_12" index="155" value="1.00000"/>
  <variable name="x_10_0" index="160" value="1.00000"/>
  <variable name="x_11_4" index="180" value="1.00000"/>
  <variable name="x_12_0" index="192" value="1.00000"/>
  <variable name="x_13_16" index="223" value="1.00000"/>
  <variable name="x_14_0" index="224" value="1.00000"/>
  <variable name="x_15_0" index="240" value="1.00000"/>
  <variable name="x_16_0" index="256" value="1.00000"/>
  <variable name="u_1" index="272" value="68.00000"/>
  <variable name="u_2" index="273" value="71.00000"/>
  <variable name="u_3" index="274" value="66.00000"/>
  <variable name="u_4" index="275" value="71.00000"/>
  <variable name="u_5" index="276" value="71.00000"/>
  <variable name="u_6" index="277" value="62.00000"/>
  <variable name="u_7" index="278" value="71.00000"/>
  <variable name="u_8" index="279" value="37.00000"/>
  <variable name="u_9" index="280" value="28.00000"/>
  <variable name="u_10" index="281" value="71.00000"/>
  <variable name="u_11" index="282" value="36.00000"/>
  <variable name="u_12" index="283" value="71.00000"/>
  <variable name="u_13" index="284" value="20.00000"/>
  <variable name="u_14" index="285" value="62.00000"/>
  <variable name="u_15" index="286" value="70.00000"/>
  <variable name="u_16" index="287" value="71.00000"/>
 </variables>
</CPLEXSolution>
